# Solution for model SEP
# Objective value = 0
y[1,2] 0
y[1,3] 0
y[1,4] 0
y[1,5] 0
y[1,7] 0
y[1,9] 0
y[1,12] 0
y[1,16] 0
y[1,20] 0
y[1,21] 0
y[1,25] 0
y[1,26] 0
y[1,30] 0
y[1,31] 0
y[1,33] 0
y[1,37] 0
y[1,39] 0
y[1,40] 0
y[1,41] 0
y[1,43] 0
y[1,44] 0
y[1,46] 0
y[1,49] 0
y[2,1] 0
y[2,3] 0
y[2,6] 0
y[2,9] 0
y[2,10] 0
y[2,16] 0
y[2,17] 0
y[2,20] 0
y[2,26] 0
y[2,27] 0
y[2,32] 0
y[2,33] 0
y[2,35] 0
y[2,37] 0
y[2,39] 0
y[2,41] 0
y[2,44] 0
y[2,45] 0
y[2,46] 0
y[2,48] 0
y[2,49] 0
y[3,1] 0
y[3,2] 0
y[3,4] 0
y[3,7] 0
y[3,8] 0
y[3,10] 0
y[3,12] 0
y[3,13] 0
y[3,18] 0
y[3,20] 0
y[3,21] 0
y[3,23] 0
y[3,24] 0
y[3,25] 0
y[3,27] 0
y[3,30] 0
y[3,33] 0
y[3,35] 0
y[3,36] 0
y[3,37] 0
y[3,38] 0
y[3,39] 0
y[3,40] 0
y[3,41] 0
y[3,42] 0
y[3,43] 0
y[3,46] 0
y[3,47] 0
y[4,1] 0
y[4,3] 0
y[4,5] 0
y[4,6] 0
y[4,7] 0
y[4,8] 0
y[4,9] 0
y[4,12] 0
y[4,15] 0
y[4,16] 0
y[4,19] 0
y[4,20] 0
y[4,21] 0
y[4,23] 0
y[4,30] 0
y[4,31] 0
y[4,32] 0
y[4,37] 0
y[4,39] 0
y[4,41] 0
y[4,44] 0
y[4,46] 0
y[4,48] 0
y[5,1] 0
y[5,4] 0
y[5,7] 0
y[5,11] 0
y[5,13] 0
y[5,22] 0
y[5,27] 0
y[5,28] 0
y[5,29] 0
y[5,30] 0
y[5,33] 0
y[5,34] 0
y[5,37] 0
y[5,38] 0
y[5,40] 0
y[5,41] 0
y[5,42] 0
y[5,43] 0
y[5,44] 0
y[5,45] 0
y[5,49] 0
y[6,2] 0
y[6,4] 0
y[6,8] 0
y[6,11] 0
y[6,15] 0
y[6,18] 0
y[6,19] 0
y[6,20] 0
y[6,21] 0
y[6,22] 0
y[6,24] 0
y[6,25] 0
y[6,26] 0
y[6,27] 0
y[6,28] 0
y[6,29] 0
y[6,30] 0
y[6,35] 0
y[6,36] 0
y[6,37] 0
y[6,39] 0
y[6,40] 0
y[6,45] 0
y[6,47] 0
y[7,1] 0
y[7,3] 0
y[7,4] 0
y[7,5] 0
y[7,9] 0
y[7,10] 0
y[7,12] 0
y[7,13] 0
y[7,14] 0
y[7,17] 0
y[7,21] 0
y[7,23] 0
y[7,26] 0
y[7,27] 0
y[7,28] 0
y[7,29] 0
y[7,31] 0
y[7,33] 0
y[7,35] 0
y[7,40] 0
y[7,41] 0
y[7,42] 0
y[7,44] 0
y[7,47] 0
y[8,3] 0
y[8,4] 0
y[8,6] 0
y[8,10] 0
y[8,14] 0
y[8,19] 0
y[8,20] 0
y[8,21] 0
y[8,22] 0
y[8,24] 0
y[8,25] 0
y[8,26] 0
y[8,27] 0
y[8,29] 0
y[8,30] 0
y[8,32] 0
y[8,34] 0
y[8,36] 0
y[8,37] 0
y[8,39] 0
y[8,40] 0
y[8,41] 0
y[8,44] 0
y[8,48] 0
y[9,1] 0
y[9,2] 0
y[9,4] 0
y[9,7] 0
y[9,12] 0
y[9,13] 0
y[9,14] 0
y[9,16] 0
y[9,19] 0
y[9,21] 0
y[9,22] 0
y[9,23] 0
y[9,24] 0
y[9,25] 0
y[9,27] 0
y[9,29] 0
y[9,30] 0
y[9,31] 0
y[9,33] 0
y[9,37] 0
y[9,38] 0
y[9,42] 0
y[9,49] 0
y[10,2] 0
y[10,3] 0
y[10,7] 0
y[10,8] 0
y[10,13] 0
y[10,14] 0
y[10,15] 0
y[10,16] 0
y[10,20] 0
y[10,21] 0
y[10,22] 0
y[10,23] 0
y[10,29] 0
y[10,31] 0
y[10,32] 0
y[10,34] 0
y[10,36] 0
y[10,37] 0
y[10,39] 0
y[10,43] 0
y[10,44] 0
y[10,45] 0
y[10,46] 0
y[10,48] 0
y[11,5] 0
y[11,6] 0
y[11,14] 0
y[11,15] 0
y[11,16] 0
y[11,22] 0
y[11,23] 0
y[11,24] 0
y[11,26] 0
y[11,28] 0
y[11,29] 0
y[11,31] 0
y[11,32] 0
y[11,33] 0
y[11,35] 0
y[11,36] 0
y[11,37] 0
y[11,38] 0
y[11,40] 0
y[11,41] 0
y[11,43] 0
y[11,46] 0
y[12,1] 0
y[12,3] 0
y[12,4] 0
y[12,7] 0
y[12,9] 0
y[12,13] 0
y[12,15] 0
y[12,17] 0
y[12,18] 0
y[12,20] 0
y[12,21] 0
y[12,22] 0
y[12,23] 0
y[12,24] 0
y[12,25] 0
y[12,27] 0
y[12,28] 0
y[12,29] 0
y[12,30] 0
y[12,31] 0
y[12,32] 0
y[12,33] 0
y[12,34] 0
y[12,35] 0
y[12,36] 0
y[12,37] 0
y[12,38] 0
y[12,40] 0
y[12,41] 0
y[12,42] 0
y[12,43] 0
y[12,46] 0
y[13,3] 0
y[13,5] 0
y[13,7] 0
y[13,9] 0
y[13,10] 0
y[13,12] 0
y[13,14] 0
y[13,20] 0
y[13,23] 0
y[13,24] 0
y[13,28] 0
y[13,29] 0
y[13,30] 0
y[13,32] 0
y[13,33] 0
y[13,35] 0
y[13,43] 0
y[13,46] 0
y[13,47] 0
y[13,48] 0
y[13,49] 0
y[14,7] 0
y[14,8] 0
y[14,9] 0
y[14,10] 0
y[14,11] 0
y[14,13] 0
y[14,15] 0
y[14,19] 0
y[14,20] 0
y[14,21] 0
y[14,23] 0
y[14,24] 0
y[14,26] 0
y[14,28] 0
y[14,29] 0
y[14,31] 0
y[14,34] 0
y[14,35] 0
y[14,40] 0
y[14,44] 0
y[14,45] 0
y[14,46] 0
y[15,4] 0
y[15,6] 0
y[15,10] 0
y[15,11] 0
y[15,12] 0
y[15,14] 0
y[15,16] 0
y[15,17] 0
y[15,18] 0
y[15,22] 0
y[15,25] 0
y[15,32] 0
y[15,35] 0
y[15,37] 0
y[15,40] 0
y[15,42] 0
y[15,43] 0
y[15,44] 0
y[15,46] 0
y[15,47] 0
y[15,49] 0
y[16,1] 0
y[16,2] 0
y[16,4] 0
y[16,9] 0
y[16,10] 0
y[16,11] 0
y[16,15] 0
y[16,17] 0
y[16,19] 0
y[16,21] 0
y[16,23] 0
y[16,24] 0
y[16,26] 0
y[16,28] 0
y[16,29] 0
y[16,32] 0
y[16,34] 0
y[16,35] 0
y[16,36] 0
y[16,37] 0
y[16,39] 0
y[16,40] 0
y[16,41] 0
y[16,42] 0
y[16,43] 0
y[16,44] 0
y[16,46] 0
y[16,48] 0
y[17,2] 0
y[17,7] 0
y[17,12] 0
y[17,15] 0
y[17,16] 0
y[17,19] 0
y[17,22] 0
y[17,23] 0
y[17,24] 0
y[17,25] 0
y[17,27] 0
y[17,29] 0
y[17,30] 0
y[17,31] 0
y[17,33] 0
y[17,34] 0
y[17,35] 0
y[17,36] 0
y[17,39] 0
y[17,41] 0
y[17,46] 0
y[17,47] 0
y[17,48] 0
y[18,3] 0
y[18,6] 0
y[18,12] 0
y[18,15] 0
y[18,19] 0
y[18,20] 0
y[18,21] 0
y[18,22] 0
y[18,23] 0
y[18,25] 0
y[18,27] 0
y[18,28] 0
y[18,30] 0
y[18,31] 0
y[18,32] 0
y[18,34] 0
y[18,36] 0
y[18,38] 0
y[18,39] 0
y[18,40] 0
y[18,43] 0
y[18,44] 0
y[18,45] 0
y[18,46] 0
y[18,47] 0
y[18,48] 0
y[19,4] 0
y[19,6] 0
y[19,8] 0
y[19,9] 0
y[19,14] 0
y[19,16] 0
y[19,17] 0
y[19,18] 0
y[19,26] 0
y[19,27] 0
y[19,29] 0
y[19,33] 0
y[19,35] 0
y[19,36] 0
y[19,37] 0
y[19,39] 0
y[19,40] 0
y[19,42] 0
y[19,43] 0
y[19,44] 0
y[19,46] 0
y[19,47] 0
y[19,49] 0
y[20,1] 0
y[20,2] 0
y[20,3] 0
y[20,4] 0
y[20,6] 0
y[20,8] 0
y[20,10] 0
y[20,12] 0
y[20,13] 0
y[20,14] 0
y[20,18] 0
y[20,22] 0
y[20,25] 0
y[20,27] 0
y[20,32] 0
y[20,33] 0
y[20,35] 0
y[20,38] 0
y[20,39] 0
y[20,40] 0
y[20,43] 0
y[20,46] 0
y[20,47] 0
y[21,1] 0
y[21,3] 0
y[21,4] 0
y[21,6] 0
y[21,7] 0
y[21,8] 0
y[21,9] 0
y[21,10] 0
y[21,12] 0
y[21,14] 0
y[21,16] 0
y[21,18] 0
y[21,24] 0
y[21,26] 0
y[21,31] 0
y[21,34] 0
y[21,36] 0
y[21,37] 0
y[21,39] 0
y[21,40] 0
y[21,41] 0
y[21,42] 0
y[21,43] 0
y[21,44] 0
y[21,46] 0
y[21,47] 0
y[21,49] 0
y[22,5] 0
y[22,6] 0
y[22,8] 0
y[22,9] 0
y[22,10] 0
y[22,11] 0
y[22,12] 0
y[22,15] 0
y[22,17] 0
y[22,18] 0
y[22,20] 0
y[22,24] 0
y[22,26] 0
y[22,28] 0
y[22,30] 0
y[22,31] 0
y[22,32] 0
y[22,33] 0
y[22,34] 0
y[22,35] 0
y[22,37] 0
y[22,39] 0
y[22,42] 0
y[22,43] 0
y[22,44] 0
y[22,45] 0
y[23,3] 0
y[23,4] 0
y[23,7] 0
y[23,9] 0
y[23,10] 0
y[23,11] 0
y[23,12] 0
y[23,13] 0
y[23,14] 0
y[23,16] 0
y[23,17] 0
y[23,18] 0
y[23,26] 0
y[23,27] 0
y[23,28] 0
y[23,32] 0
y[23,35] 0
y[23,40] 0
y[23,45] 0
y[23,46] 0
y[23,47] 0
y[23,48] 0
y[24,3] 0
y[24,6] 0
y[24,8] 0
y[24,9] 0
y[24,11] 0
y[24,12] 0
y[24,13] 0
y[24,14] 0
y[24,16] 0
y[24,17] 0
y[24,21] 0
y[24,22] 0
y[24,32] 0
y[24,33] 0
y[24,34] 0
y[24,38] 0
y[24,39] 0
y[24,41] 0
y[24,43] 0
y[24,45] 0
y[24,46] 0
y[24,48] 0
y[25,1] 0
y[25,3] 0
y[25,6] 0
y[25,8] 0
y[25,9] 0
y[25,12] 0
y[25,15] 0
y[25,17] 0
y[25,18] 0
y[25,20] 0
y[25,29] 0
y[25,31] 0
y[25,33] 0
y[25,35] 0
y[25,36] 0
y[25,38] 0
y[25,39] 0
y[25,41] 0
y[25,42] 0
y[25,46] 0
y[25,47] 0
y[25,49] 0
y[26,1] 0
y[26,2] 0
y[26,6] 0
y[26,7] 0
y[26,8] 0
y[26,11] 0
y[26,14] 0
y[26,16] 0
y[26,19] 0
y[26,21] 0
y[26,22] 0
y[26,23] 0
y[26,27] 0
y[26,30] 0
y[26,31] 0
y[26,32] 0
y[26,33] 0
y[26,34] 0
y[26,38] 0
y[26,40] 0
y[26,42] 0
y[26,43] 0
y[26,46] 0
y[26,48] 0
y[26,49] 0
y[27,2] 0
y[27,3] 0
y[27,5] 0
y[27,6] 0
y[27,7] 0
y[27,8] 0
y[27,9] 0
y[27,12] 0
y[27,17] 0
y[27,18] 0
y[27,19] 0
y[27,20] 0
y[27,23] 0
y[27,26] 0
y[27,28] 0
y[27,29] 0
y[27,35] 0
y[27,36] 0
y[27,38] 0
y[27,39] 0
y[27,40] 0
y[27,45] 0
y[27,47] 0
y[27,49] 0
y[28,5] 0
y[28,6] 0
y[28,7] 0
y[28,11] 0
y[28,12] 0
y[28,13] 0
y[28,14] 0
y[28,16] 0
y[28,18] 0
y[28,22] 0
y[28,23] 0
y[28,27] 0
y[28,33] 0
y[28,34] 0
y[28,35] 0
y[28,37] 0
y[28,41] 0
y[28,43] 0
y[28,44] 0
y[28,45] 0
y[28,47] 0
y[29,5] 0
y[29,6] 0
y[29,7] 0
y[29,8] 0
y[29,9] 0
y[29,10] 0
y[29,11] 0
y[29,12] 0
y[29,13] 0
y[29,14] 0
y[29,16] 0
y[29,17] 0
y[29,19] 0
y[29,25] 0
y[29,27] 0
y[29,30] 0
y[29,32] 0
y[29,37] 0
y[29,39] 0
y[29,41] 0
y[29,44] 0
y[29,48] 0
y[30,1] 0
y[30,3] 0
y[30,4] 0
y[30,5] 0
y[30,6] 0
y[30,8] 0
y[30,9] 0
y[30,12] 0
y[30,13] 0
y[30,17] 0
y[30,18] 0
y[30,22] 0
y[30,26] 0
y[30,29] 0
y[30,31] 0
y[30,32] 0
y[30,36] 0
y[30,37] 0
y[30,38] 0
y[30,40] 0
y[30,41] 0
y[30,43] 0
y[30,44] 0
y[30,47] 0
y[31,1] 0
y[31,4] 0
y[31,7] 0
y[31,9] 0
y[31,10] 0
y[31,11] 0
y[31,12] 0
y[31,14] 0
y[31,17] 0
y[31,18] 0
y[31,21] 0
y[31,22] 0
y[31,25] 0
y[31,26] 0
y[31,30] 0
y[31,32] 0
y[31,34] 0
y[31,36] 0
y[31,39] 0
y[31,41] 0
y[31,44] 0
y[31,45] 0
y[31,46] 0
y[31,47] 0
y[31,49] 0
y[32,2] 0
y[32,4] 0
y[32,8] 0
y[32,10] 0
y[32,11] 0
y[32,12] 0
y[32,13] 0
y[32,15] 0
y[32,16] 0
y[32,18] 0
y[32,20] 0
y[32,22] 0
y[32,23] 0
y[32,24] 0
y[32,26] 0
y[32,29] 0
y[32,30] 0
y[32,31] 0
y[32,33] 0
y[32,35] 0
y[32,36] 0
y[32,37] 0
y[32,38] 0
y[32,39] 0
y[32,46] 0
y[33,1] 0
y[33,2] 0
y[33,3] 0
y[33,5] 0
y[33,7] 0
y[33,9] 0
y[33,11] 0
y[33,12] 0
y[33,13] 0
y[33,17] 0
y[33,19] 0
y[33,20] 0
y[33,22] 0
y[33,24] 0
y[33,25] 0
y[33,26] 0
y[33,28] 0
y[33,32] 0
y[33,34] 0
y[33,37] 0
y[33,38] 0
y[33,42] 0
y[33,43] 0
y[33,45] 0
y[33,49] 0
y[34,5] 0
y[34,8] 0
y[34,10] 0
y[34,12] 0
y[34,14] 0
y[34,16] 0
y[34,17] 0
y[34,18] 0
y[34,21] 0
y[34,22] 0
y[34,24] 0
y[34,26] 0
y[34,28] 0
y[34,31] 0
y[34,33] 0
y[34,35] 0
y[34,36] 0
y[34,37] 0
y[34,41] 0
y[34,42] 0
y[34,46] 0
y[34,48] 0
y[34,49] 0
y[35,2] 0
y[35,3] 0
y[35,6] 0
y[35,7] 0
y[35,11] 0
y[35,12] 0
y[35,13] 0
y[35,14] 0
y[35,15] 0
y[35,16] 0
y[35,17] 0
y[35,19] 0
y[35,20] 0
y[35,22] 0
y[35,23] 0
y[35,25] 0
y[35,27] 0
y[35,28] 0
y[35,32] 0
y[35,34] 0
y[35,37] 0
y[35,39] 0
y[35,41] 0
y[35,42] 0
y[35,43] 0
y[35,44] 0
y[35,47] 0
y[35,48] 0
y[35,49] 0
y[36,3] 0
y[36,6] 0
y[36,8] 0
y[36,10] 0
y[36,11] 0
y[36,12] 0
y[36,16] 0
y[36,17] 0
y[36,18] 0
y[36,19] 0
y[36,21] 0
y[36,25] 0
y[36,27] 0
y[36,30] 0
y[36,31] 0
y[36,32] 0
y[36,34] 0
y[36,38] 0
y[36,39] 0
y[36,40] 0
y[36,41] 0
y[36,46] 0
y[36,47] 0
y[36,48] 0
y[36,49] 0
y[37,1] 0
y[37,2] 0
y[37,3] 0
y[37,4] 0
y[37,5] 0
y[37,6] 0
y[37,8] 0
y[37,9] 0
y[37,10] 0
y[37,11] 0
y[37,12] 0
y[37,15] 0
y[37,16] 0
y[37,19] 0
y[37,21] 0
y[37,22] 0
y[37,28] 0
y[37,29] 0
y[37,30] 0
y[37,32] 0
y[37,33] 0
y[37,34] 0
y[37,35] 0
y[37,39] 0
y[37,40] 0
y[37,41] 0
y[37,42] 0
y[37,44] 0
y[37,46] 0
y[38,3] 0
y[38,5] 0
y[38,9] 0
y[38,11] 0
y[38,12] 0
y[38,18] 0
y[38,20] 0
y[38,24] 0
y[38,25] 0
y[38,26] 0
y[38,27] 0
y[38,30] 0
y[38,32] 0
y[38,33] 0
y[38,36] 0
y[38,39] 0
y[38,40] 0
y[38,41] 0
y[38,43] 0
y[38,44] 0
y[38,45] 0
y[38,46] 0
y[38,47] 0
y[39,1] 0
y[39,2] 0
y[39,3] 0
y[39,4] 0
y[39,6] 0
y[39,8] 0
y[39,10] 0
y[39,16] 0
y[39,17] 0
y[39,18] 0
y[39,19] 0
y[39,20] 0
y[39,21] 0
y[39,22] 0
y[39,24] 0
y[39,25] 0
y[39,27] 0
y[39,29] 0
y[39,31] 0
y[39,32] 0
y[39,35] 0
y[39,36] 0
y[39,37] 0
y[39,38] 0
y[39,40] 0
y[39,42] 0
y[39,44] 0
y[39,46] 0
y[40,1] 0
y[40,3] 0
y[40,5] 0
y[40,6] 0
y[40,7] 0
y[40,8] 0
y[40,11] 0
y[40,12] 0
y[40,14] 0
y[40,15] 0
y[40,16] 0
y[40,18] 0
y[40,19] 0
y[40,20] 0
y[40,21] 0
y[40,23] 0
y[40,26] 0
y[40,27] 0
y[40,30] 0
y[40,36] 0
y[40,37] 0
y[40,38] 0
y[40,39] 0
y[40,41] 0
y[40,42] 0
y[40,44] 0
y[40,47] 0
y[41,1] 0
y[41,2] 0
y[41,3] 0
y[41,4] 0
y[41,5] 0
y[41,7] 0
y[41,8] 0
y[41,11] 0
y[41,12] 0
y[41,16] 0
y[41,17] 0
y[41,21] 0
y[41,24] 0
y[41,25] 0
y[41,28] 0
y[41,29] 0
y[41,30] 0
y[41,31] 0
y[41,34] 0
y[41,35] 0
y[41,36] 0
y[41,37] 0
y[41,38] 0
y[41,40] 0
y[41,42] 0
y[41,43] 0
y[41,44] 0
y[41,45] 0
y[41,46] 0
y[41,47] 0
y[41,48] 0
y[41,49] 0
y[42,3] 0
y[42,5] 0
y[42,7] 0
y[42,9] 0
y[42,12] 0
y[42,15] 0
y[42,16] 0
y[42,19] 0
y[42,21] 0
y[42,22] 0
y[42,25] 0
y[42,26] 0
y[42,33] 0
y[42,34] 0
y[42,35] 0
y[42,37] 0
y[42,39] 0
y[42,40] 0
y[42,41] 0
y[42,44] 0
y[42,46] 0
y[43,1] 0
y[43,3] 0
y[43,5] 0
y[43,10] 0
y[43,11] 0
y[43,12] 0
y[43,13] 0
y[43,15] 0
y[43,16] 0
y[43,18] 0
y[43,19] 0
y[43,20] 0
y[43,21] 0
y[43,22] 0
y[43,24] 0
y[43,26] 0
y[43,28] 0
y[43,30] 0
y[43,33] 0
y[43,35] 0
y[43,38] 0
y[43,41] 0
y[43,44] 0
y[43,45] 0
y[43,47] 0
y[44,1] 0
y[44,2] 0
y[44,4] 0
y[44,5] 0
y[44,7] 0
y[44,8] 0
y[44,10] 0
y[44,14] 0
y[44,15] 0
y[44,16] 0
y[44,18] 0
y[44,19] 0
y[44,21] 0
y[44,22] 0
y[44,28] 0
y[44,29] 0
y[44,30] 0
y[44,31] 0
y[44,35] 0
y[44,37] 0
y[44,38] 0
y[44,39] 0
y[44,40] 0
y[44,41] 0
y[44,42] 0
y[44,43] 0
y[44,45] 0
y[44,49] 0
y[45,2] 0
y[45,5] 0
y[45,6] 0
y[45,10] 0
y[45,14] 0
y[45,18] 0
y[45,22] 0
y[45,23] 0
y[45,24] 0
y[45,27] 0
y[45,28] 0
y[45,31] 0
y[45,33] 0
y[45,38] 0
y[45,41] 0
y[45,43] 0
y[45,44] 0
y[45,46] 0
y[45,48] 0
y[46,1] 0
y[46,2] 0
y[46,3] 0
y[46,4] 0
y[46,10] 0
y[46,11] 0
y[46,12] 0
y[46,13] 0
y[46,14] 0
y[46,15] 0
y[46,16] 0
y[46,17] 0
y[46,18] 0
y[46,19] 0
y[46,20] 0
y[46,21] 0
y[46,23] 0
y[46,24] 0
y[46,25] 0
y[46,26] 0
y[46,31] 0
y[46,32] 0
y[46,34] 0
y[46,36] 0
y[46,37] 0
y[46,38] 0
y[46,39] 0
y[46,41] 0
y[46,42] 0
y[46,45] 0
y[46,47] 0
y[46,48] 0
y[47,3] 0
y[47,6] 0
y[47,7] 0
y[47,13] 0
y[47,15] 0
y[47,17] 0
y[47,18] 0
y[47,19] 0
y[47,20] 0
y[47,21] 0
y[47,23] 0
y[47,25] 0
y[47,27] 0
y[47,28] 0
y[47,30] 0
y[47,31] 0
y[47,35] 0
y[47,36] 0
y[47,38] 0
y[47,40] 0
y[47,41] 0
y[47,43] 0
y[47,46] 0
y[47,49] 0
y[48,2] 0
y[48,4] 0
y[48,8] 0
y[48,10] 0
y[48,13] 0
y[48,16] 0
y[48,17] 0
y[48,18] 0
y[48,23] 0
y[48,24] 0
y[48,26] 0
y[48,29] 0
y[48,34] 0
y[48,35] 0
y[48,36] 0
y[48,41] 0
y[48,45] 0
y[48,46] 0
y[49,1] 0
y[49,2] 0
y[49,5] 0
y[49,9] 0
y[49,13] 0
y[49,15] 0
y[49,19] 0
y[49,21] 0
y[49,25] 0
y[49,26] 0
y[49,27] 0
y[49,31] 0
y[49,33] 0
y[49,34] 0
y[49,35] 0
y[49,36] 0
y[49,41] 0
y[49,44] 0
y[49,47] 0
z[1] 0
z[2] 0
z[3] 0
z[4] 0
z[5] 0
z[6] 0
z[7] 0
z[8] 0
z[9] 0
z[10] 0
z[11] 0
z[12] 0
z[13] 0
z[14] 0
z[15] 0
z[16] 0
z[17] 0
z[18] 0
z[19] 0
z[20] 0
z[21] 0
z[22] 0
z[23] 0
z[24] 0
z[25] 0
z[26] 0
z[27] 0
z[28] 0
z[29] 0
z[30] 0
z[31] 0
z[32] 0
z[33] 0
z[34] 0
z[35] 0
z[36] 0
z[37] 0
z[38] 0
z[39] 0
z[40] 0
z[41] 0
z[42] 0
z[43] 0
z[44] 0
z[45] 0
z[46] 0
z[47] 0
z[48] 0
z[49] 1
